<number of tasks>
20

<cycle time>
1000

<order strength>
0,221


<task times>
1 85
2 52
3 229
4 217
5 205
6 172
7 30
8 85
9 237
10 247
11 112
12 74
13 168
14 85
15 195
16 36
17 313
18 136
19 157
20 47

<precedence relations>
1,6
1,9
2,8
3,5
4,7
6,10
10,11
10,12
10,13
10,14
10,15
11,17
11,19
14,16
14,18
15,20

<end>
